# Solution for model GasLib-40
# Objective value = 1.0622777200585904e+01
loadshed[innode_1] 0
loadshed[innode_2] 0
loadshed[innode_3] 0
loadshed[innode_4] 0
loadshed[innode_5] 0
loadshed[innode_6] 0
loadshed[innode_7] 0
loadshed[innode_8] 0
loadshed[source_1] -2.1252907260114129e-01
loadshed[source_2] -4.2439966475199764e-02
loadshed[source_3] 3.2216341275890314e-01
loadshed[sink_1] 0
loadshed[sink_2] 0
loadshed[sink_3] 0
loadshed[sink_4] 0
loadshed[sink_5] 0
loadshed[sink_6] 0
loadshed[sink_7] 0
loadshed[sink_8] 0
loadshed[sink_9] 0
loadshed[sink_10] 0
loadshed[sink_11] 0
loadshed[sink_12] 6.4954561226512531e-01
loadshed[sink_13] 0
loadshed[sink_14] 0
loadshed[sink_15] 0
loadshed[sink_16] 0
loadshed[sink_17] 0
loadshed[sink_18] 0
loadshed[sink_19] 0
loadshed[sink_20] 0
loadshed[sink_21] 0
loadshed[sink_22] 0
loadshed[sink_23] 0
loadshed[sink_24] 0
loadshed[sink_25] 0
loadshed[sink_26] 0
loadshed[sink_27] 0
loadshed[sink_28] 0
loadshed[sink_29] 0
flow[source_1,sink_3] 1.9168905790114570e+02
flow[innode_1,sink_16] 1.6354166666666970e+01
flow[innode_6,sink_13] 7.3197923017814022e+00
flow[sink_13,sink_14] -9.0343743648852666e+00
flow[sink_14,sink_10] -2.5388541031552222e+01
flow[sink_25,sink_26] 1.5346095454094370e+02
flow[sink_26,sink_9] 1.3710678787427682e+02
flow[sink_9,sink_18] 1.2075262120761015e+02
flow[sink_26,sink_4] 0
flow[sink_4,sink_20] -6.4874601591805344e+01
flow[sink_18,sink_6] 1.0439845454094348e+02
flow[sink_25,innode_8] -1.5898072456780932e+02
flow[sink_6,sink_7] 5.5335954540943021e+01
flow[sink_6,sink_22] 3.2708333333333641e+01
flow[sink_7,sink_24] 38.4397227994141
flow[sink_22,sink_1] 1.6354166666666970e+01
flow[sink_24,sink_21] 2.2085556132747435e+01
flow[sink_21,sink_12] 5.7313894660807652e+00
flow[sink_7,sink_5] 5.4206507486289013e-01
flow[sink_5,sink_17] -1.5812101591803753e+01
flow[sink_17,sink_4] -4.8520434925138716e+01
flow[sink_17,sink_8] 1.6354166666668334e+01
flow[sink_3,sink_23] 16.3541666666697
flow[sink_8,sink_20] 0
flow[sink_25,sink_20] 8.1228768258472073e+01
flow[sink_25,sink_15] -99.3829572000538
flow[sink_15,sink_29] -6.4323669896700068e+01
flow[sink_29,sink_28] 1.6354166666667879e+01
flow[sink_29,sink_2] 6.7767620636687070e+01
flow[sink_2,sink_15] 51.4134539700204
flow[sink_29,innode_7] -1.6479962386672167e+02
flow[innode_4,sink_19] 4.1039879364179086e+01
flow[sink_19,innode_3] 0
flow[innode_4,innode_5] 6.6119495000706820e+01
flow[sink_27,innode_5] -6.6119495000706820e+01
flow[sink_27,sink_19] 4.9765328334040149e+01
flow[sink_10,sink_11] 3.2708333333333641e+01
flow[sink_10,innode_2] -7.4451041031552265e+01
flow[sink_10,innode_3] 0
flow[innode_6,sink_25] -7.3197923017814022e+00
flow[sink_11,innode_1] 1.6354166666666970e+01
flow[sink_19,innode_2] 7.4451041031552265e+01
flow[source_3,innode_4] 1.0715937436488591e+02
flow[source_2,innode_7] 1.6479962386672167e+02
flow[sink_3,innode_8] 1.5898072456780932e+02
pressure[innode_1] 7.5263873597757183e+01
pressure[innode_2] 7.9350619916748485e+01
pressure[innode_3] 7.9350619916748485e+01
pressure[innode_4] 81.01325
pressure[innode_5] 8.0967769524846744e+01
pressure[innode_6] 7.4238917573010923e+01
pressure[innode_7] 81.01325
pressure[innode_8] 80.3725067073108
pressure[source_1] 81.01325
pressure[source_2] 81.01325
pressure[source_3] 81.01325
pressure[sink_1] 4.5966540628481120e+01
pressure[sink_2] 7.4888875352224019e+01
pressure[sink_3] 80.3725067073108
pressure[sink_4] 5.0114725165379760e+01
pressure[sink_5] 4.7082546858293256e+01
pressure[sink_6] 4.8067618238868491e+01
pressure[sink_7] 4.7307987483973584e+01
pressure[sink_8] 4.7643348938315953e+01
pressure[sink_9] 5.5224557550158977e+01
pressure[sink_10] 7.5415574905360728e+01
pressure[sink_11] 7.5263873597757183e+01
pressure[sink_12] 1.0132499999999998e+00
pressure[sink_13] 7.4198564781302125e+01
pressure[sink_14] 7.4214732563786626e+01
pressure[sink_15] 7.4721021756354645e+01
pressure[sink_16] 74.2422237629395
pressure[sink_17] 4.8260434133729575e+01
pressure[sink_18] 5.0855367810159763e+01
pressure[sink_19] 7.9350619916748485e+01
pressure[sink_20] 5.4874227588588731e+01
pressure[sink_21] 3.0527920521988672e+00
pressure[sink_22] 4.7030309770836126e+01
pressure[sink_23] 8.0207788695651018e+01
pressure[sink_24] 3.2973690664401429e+00
pressure[sink_25] 7.4238917573010923e+01
pressure[sink_26] 6.3430752667313037e+01
pressure[sink_27] 8.0419099892030815e+01
pressure[sink_28] 7.6310223389732769e+01
pressure[sink_29] 7.6605505663349959e+01
interdiction[source_1,sink_3] 0
interdiction[innode_1,sink_16] 0
interdiction[innode_6,sink_13] 0
interdiction[sink_13,sink_14] 0
interdiction[sink_14,sink_10] 0
interdiction[sink_25,sink_26] 0
interdiction[sink_26,sink_9] 0
interdiction[sink_9,sink_18] 0
interdiction[sink_26,sink_4] 1
interdiction[sink_4,sink_20] 0
interdiction[sink_18,sink_6] 0
interdiction[sink_25,innode_8] 0
interdiction[sink_6,sink_7] 0
interdiction[sink_6,sink_22] 0
interdiction[sink_7,sink_24] 0
interdiction[sink_22,sink_1] 0
interdiction[sink_24,sink_21] 0
interdiction[sink_21,sink_12] 0
interdiction[sink_7,sink_5] 0
interdiction[sink_5,sink_17] 0
interdiction[sink_17,sink_4] 0
interdiction[sink_17,sink_8] 0
interdiction[sink_3,sink_23] 0
interdiction[sink_8,sink_20] 1
interdiction[sink_25,sink_20] 0
interdiction[sink_25,sink_15] 0
interdiction[sink_15,sink_29] 0
interdiction[sink_29,sink_28] 0
interdiction[sink_29,sink_2] 0
interdiction[sink_2,sink_15] 0
interdiction[sink_29,innode_7] 0
interdiction[innode_4,sink_19] 0
interdiction[sink_19,innode_3] 0
interdiction[innode_4,innode_5] 0
interdiction[sink_27,innode_5] 0
interdiction[sink_27,sink_19] 0
interdiction[sink_10,sink_11] 0
interdiction[sink_10,innode_2] 0
interdiction[sink_10,innode_3] 1
interdiction[innode_6,sink_25] 0
interdiction[sink_11,innode_1] 0
interdiction[sink_19,innode_2] 0
interdiction[source_3,innode_4] 0
interdiction[source_2,innode_7] 0
interdiction[sink_3,innode_8] 0
WCcheckFlow[source_1,sink_3] 39
WCcheckFlow[innode_1,sink_16] 1
WCcheckFlow[innode_6,sink_13] 13
WCcheckFlow[sink_13,sink_14] 12
WCcheckFlow[sink_14,sink_10] 11
WCcheckFlow[sink_25,sink_26] 15
WCcheckFlow[sink_26,sink_9] 14
WCcheckFlow[sink_9,sink_18] 13
WCcheckFlow[sink_26,sink_4] 0
WCcheckFlow[sink_4,sink_20] 1
WCcheckFlow[sink_18,sink_6] 12
WCcheckFlow[sink_25,innode_8] -36
WCcheckFlow[sink_6,sink_7] 9
WCcheckFlow[sink_6,sink_22] 2
WCcheckFlow[sink_7,sink_24] 3
WCcheckFlow[sink_22,sink_1] 1
WCcheckFlow[sink_24,sink_21] 2
WCcheckFlow[sink_21,sink_12] 1
WCcheckFlow[sink_7,sink_5] 5
WCcheckFlow[sink_5,sink_17] 4
WCcheckFlow[sink_17,sink_4] 2
WCcheckFlow[sink_17,sink_8] 1
WCcheckFlow[sink_3,sink_23] 1
WCcheckFlow[sink_8,sink_20] 0
WCcheckFlow[sink_25,sink_20] 0
WCcheckFlow[sink_25,sink_15] 6
WCcheckFlow[sink_15,sink_29] 5
WCcheckFlow[sink_29,sink_28] 1
WCcheckFlow[sink_29,sink_2] 1
WCcheckFlow[sink_2,sink_15] 0
WCcheckFlow[sink_29,innode_7] 2
WCcheckFlow[innode_4,sink_19] -4
WCcheckFlow[sink_19,innode_3] 1
WCcheckFlow[innode_4,innode_5] 2
WCcheckFlow[sink_27,innode_5] -1
WCcheckFlow[sink_27,sink_19] 0
WCcheckFlow[sink_10,sink_11] 3
WCcheckFlow[sink_10,innode_2] 7
WCcheckFlow[sink_10,innode_3] 0
WCcheckFlow[innode_6,sink_25] -14
WCcheckFlow[sink_11,innode_1] 2
WCcheckFlow[sink_19,innode_2] -6
WCcheckFlow[source_3,innode_4] -1
WCcheckFlow[source_2,innode_7] -1
WCcheckFlow[sink_3,innode_8] 37
